container_length = 4500;
container_width = 3000;
container_height = 1350;
n = 6;
boxes = [|400, 375, 200, 35
         |300, 250, 225, 15
         |500, 500, 100, 25
         |800, 250, 250, 10
         |1500, 200, 200, 20
         |900, 200, 200, 15|];
